CPLEX 12.6.2.0: mipgap=0.01
mipdisplay=3
MIP Presolve eliminated 48 rows and 12 columns.
Reduced MIP has 138 rows, 156 columns, and 474 nonzeros.
Reduced MIP has 78 binaries, 0 generals, 0 SOSs, and 0 indicators.
Found incumbent of value 47.945587 after 0.02 sec. (5.83 ticks)
Probing time = 0.00 sec. (0.11 ticks)
MIP Presolve modified 108 coefficients.
Reduced MIP has 138 rows, 156 columns, and 474 nonzeros.
Reduced MIP has 78 binaries, 0 generals, 0 SOSs, and 0 indicators.
Probing time = 0.00 sec. (0.11 ticks)
Clique table members: 126.
MIP emphasis: balance optimality and feasibility.
MIP search method: dynamic search.
Parallel mode: deterministic, using up to 4 threads.
Root relaxation solution time = 0.01 sec. (0.59 ticks)

        Nodes                                         Cuts/
   Node  Left     Objective  IInf  Best Integer    Best Bound    ItCnt     Gap

*     0+    0                           47.9456        0.0000           100.00%
Found incumbent of value 47.945587 after 0.03 sec. (7.16 ticks)
*     0+    0                           11.9456        0.0000           100.00%
Found incumbent of value 11.945587 after 0.03 sec. (7.16 ticks)
*     0+    0                            5.4082        0.0000           100.00%
Found incumbent of value 5.408165 after 0.03 sec. (7.16 ticks)
      0     0        0.0000    39        5.4082        0.0000       57  100.00%
*     0+    0                            5.2295        0.0000           100.00%
Found incumbent of value 5.229493 after 0.03 sec. (7.49 ticks)
      0     0        0.0000    40        5.2295      Cuts: 33       80  100.00%
      0     0        0.0000    39        5.2295      Cuts: 28      107  100.00%
*     0+    0                            4.1586        0.0000           100.00%
Found incumbent of value 4.158628 after 0.08 sec. (17.65 ticks)
      0     2        0.0000    39        4.1586        0.9043      107   78.26%
Elapsed time = 0.08 sec. (18.15 ticks, tree = 0.00 MB)
*   381+  256                            4.0980        1.0397            74.63%
                                                    Covers: 8                  
Found incumbent of value 4.097999 after 0.11 sec. (29.35 ticks)
*  2239  1047      integral     0        3.9438        2.6257     6391   33.42%
                                                     Cuts: 13                  
Found incumbent of value 3.943809 after 0.22 sec. (72.11 ticks)
   7960  1587        3.4262    17        3.9438        3.3013    23574   16.29%
                                                     Cuts: 18                  
   7962  1587        2.8003    21        3.9438        3.3013    23578   16.29%
   7963  1588        3.1455    19        3.9438        3.3013    23588   16.29%
   7964  1589        3.4541    16        3.9438        3.3013    23589   16.29%
   7965  1590        3.0646    11        3.9438        3.3013    23595   16.29%
   7966  1591        2.9670    20        3.9438        3.3013    23596   16.29%
   7967  1591        3.5219    18        3.9438        3.3013    23598   16.29%
   7968  1592        3.4541    16        3.9438        3.3013    23600   16.29%
   7969  1592        3.3792     8        3.9438        3.3013    23601   16.29%

GUB cover cuts applied:  2
Cover cuts applied:  18
Mixed integer rounding cuts applied:  2
Gomory fractional cuts applied:  26

Root node processing (before b&c):
  Real time             =    0.08 sec. (18.06 ticks)
Parallel b&c, 4 threads:
  Real time             =    1.56 sec. (601.81 ticks)
  Sync time (average)   =    0.13 sec.
  Wait time (average)   =    0.17 sec.
                          ------------
Total (root+branch&cut) =    1.64 sec. (619.87 ticks)
CPLEX 12.6.2.0: optimal integer solution within mipgap or absmipgap; objective 3.943808508
47321 MIP simplex iterations
15181 branch-and-bound nodes
absmipgap = 0.0363401, relmipgap = 0.00921447
No basis.
CB :=
1 2   0
1 3   1.3146
2 1   1.3146
2 3   0
3 1   0
3 2   1.3146
;

